NAME : MM1_depots
COMMENT : Instance 1 in MD algorithm. Coordinates of depots and vhcl speeds given.
TYPE : TSP
DIMENSION : 3
EDGE_WEIGHT_TYPE : ATT
NODE_COORD_SECTION
11 10.0000 20.0000 1
12 20.0000 30.0000 1
13 30.0000 10.0000 1
EOF
